language ESSENCE' 1.0

letting C_FunctionND be
        [[0, 0, 0, 0, 0, 0, 0, 0, 0, 0, 0, 0, 0, 0, 0, 0, 0, 0, 0, 0, 0, 0; int(0..21)],
         [1, 0, 0, 0, 0, 0, 0, 0, 0, 0, 0, 0, 0, 0, 0, 0, 0, 0, 0, 0, 0, 0; int(0..21)],
         [1, 0, 0, 0, 0, 0, 0, 0, 0, 0, 0, 0, 0, 0, 0, 0, 0, 0, 0, 0, 0, 0; int(0..21)],
         [1, 0, 0, 0, 0, 0, 0, 0, 0, 0, 0, 0, 0, 0, 0, 0, 0, 0, 0, 0, 0, 0; int(0..21)],
         [1, 0, 0, 0, 0, 0, 0, 0, 0, 0, 0, 0, 0, 0, 0, 0, 0, 0, 0, 0, 0, 0; int(0..21)],
         [1, 0, 0, 0, 0, 0, 0, 0, 0, 0, 0, 0, 0, 0, 0, 0, 0, 0, 0, 0, 0, 0; int(0..21)],
         [1, 0, 0, 0, 0, 0, 0, 0, 0, 0, 0, 0, 0, 0, 0, 0, 0, 0, 0, 0, 0, 0; int(0..21)],
         [1, 0, 0, 0, 0, 0, 0, 0, 0, 0, 0, 0, 0, 0, 0, 0, 0, 0, 0, 0, 0, 0; int(0..21)],
         [1, 0, 0, 0, 0, 0, 0, 0, 0, 0, 0, 0, 0, 0, 0, 0, 0, 0, 0, 0, 0, 0; int(0..21)],
         [1, 0, 0, 0, 0, 0, 0, 0, 0, 0, 0, 0, 0, 0, 0, 0, 0, 0, 0, 0, 0, 0; int(0..21)],
         [1, 0, 0, 0, 0, 0, 0, 0, 0, 0, 0, 0, 0, 0, 0, 0, 0, 0, 0, 0, 0, 0; int(0..21)],
         [0, 1, 1, 1, 0, 1, 1, 1, 1, 1, 1, 0, 0, 0, 0, 0, 0, 0, 0, 0, 0, 0; int(0..21)],
         [0, 1, 0, 0, 1, 0, 0, 0, 0, 0, 0, 0, 0, 0, 0, 0, 0, 0, 0, 0, 0, 0; int(0..21)],
         [0, 0, 1, 0, 1, 0, 0, 0, 0, 0, 0, 0, 0, 0, 0, 0, 0, 0, 0, 0, 0, 0; int(0..21)],
         [0, 0, 0, 1, 1, 0, 0, 0, 0, 0, 0, 0, 0, 0, 0, 0, 0, 0, 0, 0, 0, 0; int(0..21)],
         [0, 0, 0, 0, 1, 1, 0, 0, 0, 0, 0, 0, 0, 0, 0, 0, 0, 0, 0, 0, 0, 0; int(0..21)],
         [0, 0, 0, 0, 1, 0, 1, 0, 0, 0, 0, 0, 0, 0, 0, 0, 0, 0, 0, 0, 0, 0; int(0..21)],
         [0, 0, 0, 0, 1, 0, 0, 1, 0, 0, 0, 0, 0, 0, 0, 0, 0, 0, 0, 0, 0, 0; int(0..21)],
         [0, 0, 0, 0, 1, 0, 0, 0, 1, 0, 0, 0, 0, 0, 0, 0, 0, 0, 0, 0, 0, 0; int(0..21)],
         [0, 0, 0, 0, 1, 0, 0, 0, 0, 1, 0, 0, 0, 0, 0, 0, 0, 0, 0, 0, 0, 0; int(0..21)],
         [0, 0, 0, 0, 1, 0, 0, 0, 0, 0, 1, 0, 0, 0, 0, 0, 0, 0, 0, 0, 0, 0; int(0..21)],
         [0, 0, 0, 0, 0, 0, 0, 0, 0, 0, 0, 1, 1, 1, 1, 1, 1, 1, 1, 1, 1, 0; int(0..21)];
             int(0..21)]
$ Visualisation for C_FunctionND
$ 0 0 0 0 0 0 0 0 0 0 0 0 0 0 0 0 0 0 0 0 0 0
$ 1 0 0 0 0 0 0 0 0 0 0 0 0 0 0 0 0 0 0 0 0 0
$ 1 0 0 0 0 0 0 0 0 0 0 0 0 0 0 0 0 0 0 0 0 0
$ 1 0 0 0 0 0 0 0 0 0 0 0 0 0 0 0 0 0 0 0 0 0
$ 1 0 0 0 0 0 0 0 0 0 0 0 0 0 0 0 0 0 0 0 0 0
$ 1 0 0 0 0 0 0 0 0 0 0 0 0 0 0 0 0 0 0 0 0 0
$ 1 0 0 0 0 0 0 0 0 0 0 0 0 0 0 0 0 0 0 0 0 0
$ 1 0 0 0 0 0 0 0 0 0 0 0 0 0 0 0 0 0 0 0 0 0
$ 1 0 0 0 0 0 0 0 0 0 0 0 0 0 0 0 0 0 0 0 0 0
$ 1 0 0 0 0 0 0 0 0 0 0 0 0 0 0 0 0 0 0 0 0 0
$ 1 0 0 0 0 0 0 0 0 0 0 0 0 0 0 0 0 0 0 0 0 0
$ 0 1 1 1 0 1 1 1 1 1 1 0 0 0 0 0 0 0 0 0 0 0
$ 0 1 0 0 1 0 0 0 0 0 0 0 0 0 0 0 0 0 0 0 0 0
$ 0 0 1 0 1 0 0 0 0 0 0 0 0 0 0 0 0 0 0 0 0 0
$ 0 0 0 1 1 0 0 0 0 0 0 0 0 0 0 0 0 0 0 0 0 0
$ 0 0 0 0 1 1 0 0 0 0 0 0 0 0 0 0 0 0 0 0 0 0
$ 0 0 0 0 1 0 1 0 0 0 0 0 0 0 0 0 0 0 0 0 0 0
$ 0 0 0 0 1 0 0 1 0 0 0 0 0 0 0 0 0 0 0 0 0 0
$ 0 0 0 0 1 0 0 0 1 0 0 0 0 0 0 0 0 0 0 0 0 0
$ 0 0 0 0 1 0 0 0 0 1 0 0 0 0 0 0 0 0 0 0 0 0
$ 0 0 0 0 1 0 0 0 0 0 1 0 0 0 0 0 0 0 0 0 0 0
$ 0 0 0 0 0 0 0 0 0 0 0 1 1 1 1 1 1 1 1 1 1 0

letting J_FunctionND be
        [[0, 1, 2, 3, 4, 5, 6, 7, 8, 9, 10, 11, 12, 13, 14, 15, 16, 17, 18, 19, 20, 21; int(0..21)],
         [1, 1, 11, 11, 12, 11, 11, 11, 11, 11, 11, 11, 12, 21, 21, 21, 21, 21, 21, 21, 21, 21; int(0..21)],
         [2, 11, 2, 11, 13, 11, 11, 11, 11, 11, 11, 11, 21, 13, 21, 21, 21, 21, 21, 21, 21, 21; int(0..21)],
         [3, 11, 11, 3, 14, 11, 11, 11, 11, 11, 11, 11, 21, 21, 14, 21, 21, 21, 21, 21, 21, 21; int(0..21)],
         [4, 12, 13, 14, 4, 15, 16, 17, 18, 19, 20, 21, 12, 13, 14, 15, 16, 17, 18, 19, 20, 21; int(0..21)],
         [5, 11, 11, 11, 15, 5, 11, 11, 11, 11, 11, 11, 21, 21, 21, 15, 21, 21, 21, 21, 21, 21; int(0..21)],
         [6, 11, 11, 11, 16, 11, 6, 11, 11, 11, 11, 11, 21, 21, 21, 21, 16, 21, 21, 21, 21, 21; int(0..21)],
         [7, 11, 11, 11, 17, 11, 11, 7, 11, 11, 11, 11, 21, 21, 21, 21, 21, 17, 21, 21, 21, 21; int(0..21)],
         [8, 11, 11, 11, 18, 11, 11, 11, 8, 11, 11, 11, 21, 21, 21, 21, 21, 21, 18, 21, 21, 21; int(0..21)],
         [9, 11, 11, 11, 19, 11, 11, 11, 11, 9, 11, 11, 21, 21, 21, 21, 21, 21, 21, 19, 21, 21; int(0..21)],
         [10, 11, 11, 11, 20, 11, 11, 11, 11, 11, 10, 11, 21, 21, 21, 21, 21, 21, 21, 21, 20, 21; int(0..21)],
         [11, 11, 11, 11, 21, 11, 11, 11, 11, 11, 11, 11, 21, 21, 21, 21, 21, 21, 21, 21, 21, 21; int(0..21)],
         [12, 12, 21, 21, 12, 21, 21, 21, 21, 21, 21, 21, 12, 21, 21, 21, 21, 21, 21, 21, 21, 21; int(0..21)],
         [13, 21, 13, 21, 13, 21, 21, 21, 21, 21, 21, 21, 21, 13, 21, 21, 21, 21, 21, 21, 21, 21; int(0..21)],
         [14, 21, 21, 14, 14, 21, 21, 21, 21, 21, 21, 21, 21, 21, 14, 21, 21, 21, 21, 21, 21, 21; int(0..21)],
         [15, 21, 21, 21, 15, 15, 21, 21, 21, 21, 21, 21, 21, 21, 21, 15, 21, 21, 21, 21, 21, 21; int(0..21)],
         [16, 21, 21, 21, 16, 21, 16, 21, 21, 21, 21, 21, 21, 21, 21, 21, 16, 21, 21, 21, 21, 21; int(0..21)],
         [17, 21, 21, 21, 17, 21, 21, 17, 21, 21, 21, 21, 21, 21, 21, 21, 21, 17, 21, 21, 21, 21; int(0..21)],
         [18, 21, 21, 21, 18, 21, 21, 21, 18, 21, 21, 21, 21, 21, 21, 21, 21, 21, 18, 21, 21, 21; int(0..21)],
         [19, 21, 21, 21, 19, 21, 21, 21, 21, 19, 21, 21, 21, 21, 21, 21, 21, 21, 21, 19, 21, 21; int(0..21)],
         [20, 21, 21, 21, 20, 21, 21, 21, 21, 21, 20, 21, 21, 21, 21, 21, 21, 21, 21, 21, 20, 21; int(0..21)],
         [21, 21, 21, 21, 21, 21, 21, 21, 21, 21, 21, 21, 21, 21, 21, 21, 21, 21, 21, 21, 21, 21; int(0..21)];
             int(0..21)]
$ Visualisation for J_FunctionND
$  0  1  2  3  4  5  6  7  8  9 10 11 12 13 14 15 16 17 18 19 20 21
$  1  1 11 11 12 11 11 11 11 11 11 11 12 21 21 21 21 21 21 21 21 21
$  2 11  2 11 13 11 11 11 11 11 11 11 21 13 21 21 21 21 21 21 21 21
$  3 11 11  3 14 11 11 11 11 11 11 11 21 21 14 21 21 21 21 21 21 21
$  4 12 13 14  4 15 16 17 18 19 20 21 12 13 14 15 16 17 18 19 20 21
$  5 11 11 11 15  5 11 11 11 11 11 11 21 21 21 15 21 21 21 21 21 21
$  6 11 11 11 16 11  6 11 11 11 11 11 21 21 21 21 16 21 21 21 21 21
$  7 11 11 11 17 11 11  7 11 11 11 11 21 21 21 21 21 17 21 21 21 21
$  8 11 11 11 18 11 11 11  8 11 11 11 21 21 21 21 21 21 18 21 21 21
$  9 11 11 11 19 11 11 11 11  9 11 11 21 21 21 21 21 21 21 19 21 21
$ 10 11 11 11 20 11 11 11 11 11 10 11 21 21 21 21 21 21 21 21 20 21
$ 11 11 11 11 21 11 11 11 11 11 11 11 21 21 21 21 21 21 21 21 21 21
$ 12 12 21 21 12 21 21 21 21 21 21 21 12 21 21 21 21 21 21 21 21 21
$ 13 21 13 21 13 21 21 21 21 21 21 21 21 13 21 21 21 21 21 21 21 21
$ 14 21 21 14 14 21 21 21 21 21 21 21 21 21 14 21 21 21 21 21 21 21
$ 15 21 21 21 15 15 21 21 21 21 21 21 21 21 21 15 21 21 21 21 21 21
$ 16 21 21 21 16 21 16 21 21 21 21 21 21 21 21 21 16 21 21 21 21 21
$ 17 21 21 21 17 21 21 17 21 21 21 21 21 21 21 21 21 17 21 21 21 21
$ 18 21 21 21 18 21 21 21 18 21 21 21 21 21 21 21 21 21 18 21 21 21
$ 19 21 21 21 19 21 21 21 21 19 21 21 21 21 21 21 21 21 21 19 21 21
$ 20 21 21 21 20 21 21 21 21 21 20 21 21 21 21 21 21 21 21 21 20 21
$ 21 21 21 21 21 21 21 21 21 21 21 21 21 21 21 21 21 21 21 21 21 21

letting M_FunctionND be
        [[0, 0, 0, 0, 0, 0, 0, 0, 0, 0, 0, 0, 0, 0, 0, 0, 0, 0, 0, 0, 0, 0; int(0..21)],
         [0, 1, 0, 0, 0, 0, 0, 0, 0, 0, 0, 1, 1, 0, 0, 0, 0, 0, 0, 0, 0, 1; int(0..21)],
         [0, 0, 2, 0, 0, 0, 0, 0, 0, 0, 0, 2, 0, 2, 0, 0, 0, 0, 0, 0, 0, 2; int(0..21)],
         [0, 0, 0, 3, 0, 0, 0, 0, 0, 0, 0, 3, 0, 0, 3, 0, 0, 0, 0, 0, 0, 3; int(0..21)],
         [0, 0, 0, 0, 4, 0, 0, 0, 0, 0, 0, 0, 4, 4, 4, 4, 4, 4, 4, 4, 4, 4; int(0..21)],
         [0, 0, 0, 0, 0, 5, 0, 0, 0, 0, 0, 5, 0, 0, 0, 5, 0, 0, 0, 0, 0, 5; int(0..21)],
         [0, 0, 0, 0, 0, 0, 6, 0, 0, 0, 0, 6, 0, 0, 0, 0, 6, 0, 0, 0, 0, 6; int(0..21)],
         [0, 0, 0, 0, 0, 0, 0, 7, 0, 0, 0, 7, 0, 0, 0, 0, 0, 7, 0, 0, 0, 7; int(0..21)],
         [0, 0, 0, 0, 0, 0, 0, 0, 8, 0, 0, 8, 0, 0, 0, 0, 0, 0, 8, 0, 0, 8; int(0..21)],
         [0, 0, 0, 0, 0, 0, 0, 0, 0, 9, 0, 9, 0, 0, 0, 0, 0, 0, 0, 9, 0, 9; int(0..21)],
         [0, 0, 0, 0, 0, 0, 0, 0, 0, 0, 10, 10, 0, 0, 0, 0, 0, 0, 0, 0, 10, 10; int(0..21)],
         [0, 1, 2, 3, 0, 5, 6, 7, 8, 9, 10, 11, 1, 2, 3, 5, 6, 7, 8, 9, 10, 11; int(0..21)],
         [0, 1, 0, 0, 4, 0, 0, 0, 0, 0, 0, 1, 12, 4, 4, 4, 4, 4, 4, 4, 4, 12; int(0..21)],
         [0, 0, 2, 0, 4, 0, 0, 0, 0, 0, 0, 2, 4, 13, 4, 4, 4, 4, 4, 4, 4, 13; int(0..21)],
         [0, 0, 0, 3, 4, 0, 0, 0, 0, 0, 0, 3, 4, 4, 14, 4, 4, 4, 4, 4, 4, 14; int(0..21)],
         [0, 0, 0, 0, 4, 5, 0, 0, 0, 0, 0, 5, 4, 4, 4, 15, 4, 4, 4, 4, 4, 15; int(0..21)],
         [0, 0, 0, 0, 4, 0, 6, 0, 0, 0, 0, 6, 4, 4, 4, 4, 16, 4, 4, 4, 4, 16; int(0..21)],
         [0, 0, 0, 0, 4, 0, 0, 7, 0, 0, 0, 7, 4, 4, 4, 4, 4, 17, 4, 4, 4, 17; int(0..21)],
         [0, 0, 0, 0, 4, 0, 0, 0, 8, 0, 0, 8, 4, 4, 4, 4, 4, 4, 18, 4, 4, 18; int(0..21)],
         [0, 0, 0, 0, 4, 0, 0, 0, 0, 9, 0, 9, 4, 4, 4, 4, 4, 4, 4, 19, 4, 19; int(0..21)],
         [0, 0, 0, 0, 4, 0, 0, 0, 0, 0, 10, 10, 4, 4, 4, 4, 4, 4, 4, 4, 20, 20; int(0..21)],
         [0, 1, 2, 3, 4, 5, 6, 7, 8, 9, 10, 11, 12, 13, 14, 15, 16, 17, 18, 19, 20, 21; int(0..21)];
             int(0..21)]
$ Visualisation for M_FunctionND
$  0  0  0  0  0  0  0  0  0  0  0  0  0  0  0  0  0  0  0  0  0  0
$  0  1  0  0  0  0  0  0  0  0  0  1  1  0  0  0  0  0  0  0  0  1
$  0  0  2  0  0  0  0  0  0  0  0  2  0  2  0  0  0  0  0  0  0  2
$  0  0  0  3  0  0  0  0  0  0  0  3  0  0  3  0  0  0  0  0  0  3
$  0  0  0  0  4  0  0  0  0  0  0  0  4  4  4  4  4  4  4  4  4  4
$  0  0  0  0  0  5  0  0  0  0  0  5  0  0  0  5  0  0  0  0  0  5
$  0  0  0  0  0  0  6  0  0  0  0  6  0  0  0  0  6  0  0  0  0  6
$  0  0  0  0  0  0  0  7  0  0  0  7  0  0  0  0  0  7  0  0  0  7
$  0  0  0  0  0  0  0  0  8  0  0  8  0  0  0  0  0  0  8  0  0  8
$  0  0  0  0  0  0  0  0  0  9  0  9  0  0  0  0  0  0  0  9  0  9
$  0  0  0  0  0  0  0  0  0  0 10 10  0  0  0  0  0  0  0  0 10 10
$  0  1  2  3  0  5  6  7  8  9 10 11  1  2  3  5  6  7  8  9 10 11
$  0  1  0  0  4  0  0  0  0  0  0  1 12  4  4  4  4  4  4  4  4 12
$  0  0  2  0  4  0  0  0  0  0  0  2  4 13  4  4  4  4  4  4  4 13
$  0  0  0  3  4  0  0  0  0  0  0  3  4  4 14  4  4  4  4  4  4 14
$  0  0  0  0  4  5  0  0  0  0  0  5  4  4  4 15  4  4  4  4  4 15
$  0  0  0  0  4  0  6  0  0  0  0  6  4  4  4  4 16  4  4  4  4 16
$  0  0  0  0  4  0  0  7  0  0  0  7  4  4  4  4  4 17  4  4  4 17
$  0  0  0  0  4  0  0  0  8  0  0  8  4  4  4  4  4  4 18  4  4 18
$  0  0  0  0  4  0  0  0  0  9  0  9  4  4  4  4  4  4  4 19  4 19
$  0  0  0  0  4  0  0  0  0  0 10 10  4  4  4  4  4  4  4  4 20 20
$  0  1  2  3  4  5  6  7  8  9 10 11 12 13 14 15 16 17 18 19 20 21

letting R_Function1D be [0, 1, 1, 1, 1, 1, 1, 1, 1, 1, 1, 2, 2, 2, 2, 2, 2, 2, 2, 2, 2, 3; int(0..21)]
